p cnf 28 35
-1 -2 28 0 
-3 -4 28 0 
-5 -6 -4 28 0 
-1 -7 20 -8 19 -9 27 28 0 
-4 28 0 
-4 -10 28 0 
-2 28 0 
-4 -7 20 28 0 
-7 20 -8 19 28 0 
-11 -12 -2 28 0 
-13 -4 28 0 
-14 -15 -2 28 0 
-16 -4 28 0 
-15 -4 28 0 
-2 28 0 
-17 28 0 
-3 -2 28 0 
-13 -12 -2 28 0 
-4 28 0 
-18 -15 -2 28 0 
-2 -19 8 28 0 
-20 7 28 0 
-10 28 0 
-21 -2 28 0 
-3 -4 28 0 
-22 -4 28 0 
-14 -23 -2 28 0 
-16 -2 28 0 
-24 28 0 
-25 28 0 
-18 -4 28 0 
-21 -4 28 0 
-5 -4 28 0 
-26 -27 9 28 0 
-23 -4 28 0 
